data;

param num_top:=5;

#nodes and edges of the physical network
param n := 10;

set E := (1,2) (1,3) (1,7) (2,4) (2,7) (3,5) (4,8) (5,6) (5,7) (6,7) (6,9) (7,8) (7,9) (8,10) (9,10) ;

#nodes and edges of the virtual networks
set Nl[1] := 7 2 10 1 4 ;
set Nl[2] := 9 4 6 3 7 ;
set Nl[3] := 7 10 9 4 6 ;
set Nl[4] := 6 7 4 8 9 ;
set Nl[5] := 2 3 8 4 1 ;

set El[1] := (2,7) (2,10) (1,10) (1,4) (4,7) (1,7) (4,10) (7,10) (2,4) (1,2) ;
set El[2] := (4,9) (4,6) (3,6) (3,7) (7,9) (4,7) (3,4) (3,9) (6,7) (6,9) ;
set El[3] := (7,10) (9,10) (4,9) (4,6) (6,7) (4,7) (6,9) (7,9) (4,10) (6,10) ;
set El[4] := (6,7) (4,7) (4,8) (8,9) (6,9) (7,9) (4,6) (7,8) (6,8) (4,9) ;
set El[5] := (2,3) (3,8) (4,8) (1,4) (1,2) (2,4) (1,3) (2,8) (3,4) (1,8) ;
